#P AM1(Input,Print) opt

best

0   1
6        1.023898    -0.689893    -0.030238
6       -0.330893    -1.081417    -0.060258
8       -1.166573     0.008050    -0.010070
6       -0.340417     1.099240     0.038972
6        0.949190     0.705409     0.014228
1        1.825006     1.380846     0.011243
1       -0.836537     2.059733     0.084044
1       -0.804216    -2.012929    -0.032287
1        1.803988    -1.368304     0.002124

Method=8 CoreType=1 PeptideFC=0.0115023749 RIJScale=0.5498469277
****
H 
PQN=1 NValence=1 F0ss=0.4721553327 ZetaOverlap=1.0952851616 U=-0.4170812705
Beta=-0.2268825074 CoreKO=1.0229678371 KON=0,0,0,1.1711189547 KON=1,0,1,1.0589197790
KON=0,1,1,1.0208246310 KON=2,1,1,1.0589197790 EISol=-0.4188110042 EHeat=0.0830298228
Alpha=1.5252601686
GCore=0.0090141628,1.4646307669,2.2733532053
GCore=0.0003572973,1.2851185010,3.1993476827
GCore=-0.0012319278,0.5600570362,3.9684248791
****
C 
PQN=2,2 NValence=4 F0ss=0.4494442496 F0sp=0.4201585839 F0pp=0.3768030831 F2pp=0.1853269360
G1sp=0.2679025821
ZetaOverlap=1.8086650000,1.7763413239
U=-1.9120180828,-1.4557965594
Beta=-0.5722819218,-0.3092138665 DDN=0,1,0.8337431937 DDN=1,1,0.7663422185
CoreKO=1.1674129280 KON=0,0,0,1.1124284736 KON=1,0,1,0.7911716224 KON=0,1,1,0.9947781247
KON=2,1,1,0.8630220569 EISol=-4.4398989268 EHeat=0.2723305520 Alpha=1.4014062429
DipHyp=1.5005698139
GCore=0.0008980260,1.4001425905,2.9086362888
GCore=0.0031649701,1.3637583984,3.4959933458
GCore=-0.0015747380,1.4001425905,3.6057477340
GCore=-0.0000888771,1.3812693546,5.3049303093
****
O 
PQN=2,2 NValence=6 F0ss=0.5848690267 F0sp=0.5321302318 F0pp=0.4958708974 F2pp=0.2344894845
G1sp=0.4343770262
ZetaOverlap=3.1092128918,2.5240390000
U=-3.5951865036,-2.8760896690
Beta=-1.0757546603,-1.0376781439 DDN=0,1,0.4988896000 DDN=1,1,0.4851967478
CoreKO=0.8822957477 KON=0,0,0,0.8644959976 KON=1,0,1,0.4674744593 KON=0,1,1,0.9229149174
KON=2,1,1,0.4733807789 EISol=-11.6164441184 EHeat=0.0949133088 Alpha=2.3576807890
DipHyp=0.9977217969
GCore=0.0206944368,1.3203262578,1.6023328031
GCore=0.0056550009,1.9286482007,2.8620615714
****

--Link1--
#P AM1(Input,Print) CIS(Singlets,NStates=10) pop(full) freq

best1

0   1
6        1.023898    -0.689893    -0.030238
6       -0.330893    -1.081417    -0.060258
8       -1.166573     0.008050    -0.010070
6       -0.340417     1.099240     0.038972
6        0.949190     0.705409     0.014228
1        1.825006     1.380846     0.011243
1       -0.836537     2.059733     0.084044
1       -0.804216    -2.012929    -0.032287
1        1.803988    -1.368304     0.002124

Method=8 CoreType=1 PeptideFC=0.0115023749 RIJScale=0.5498469277
****
H 
PQN=1 NValence=1 F0ss=0.4721553327 ZetaOverlap=1.0952851616 U=-0.4170812705
Beta=-0.2268825074 CoreKO=1.0229678371 KON=0,0,0,1.1711189547 KON=1,0,1,1.0589197790
KON=0,1,1,1.0208246310 KON=2,1,1,1.0589197790 EISol=-0.4188110042 EHeat=0.0830298228
Alpha=1.5252601686
GCore=0.0090141628,1.4646307669,2.2733532053
GCore=0.0003572973,1.2851185010,3.1993476827
GCore=-0.0012319278,0.5600570362,3.9684248791
****
C 
PQN=2,2 NValence=4 F0ss=0.4494442496 F0sp=0.4201585839 F0pp=0.3768030831 F2pp=0.1853269360
G1sp=0.2679025821
ZetaOverlap=1.8086650000,1.7763413239
U=-1.9120180828,-1.4557965594
Beta=-0.5722819218,-0.3092138665 DDN=0,1,0.8337431937 DDN=1,1,0.7663422185
CoreKO=1.1674129280 KON=0,0,0,1.1124284736 KON=1,0,1,0.7911716224 KON=0,1,1,0.9947781247
KON=2,1,1,0.8630220569 EISol=-4.4398989268 EHeat=0.2723305520 Alpha=1.4014062429
DipHyp=1.5005698139
GCore=0.0008980260,1.4001425905,2.9086362888
GCore=0.0031649701,1.3637583984,3.4959933458
GCore=-0.0015747380,1.4001425905,3.6057477340
GCore=-0.0000888771,1.3812693546,5.3049303093
****
O 
PQN=2,2 NValence=6 F0ss=0.5848690267 F0sp=0.5321302318 F0pp=0.4958708974 F2pp=0.2344894845
G1sp=0.4343770262
ZetaOverlap=3.1092128918,2.5240390000
U=-3.5951865036,-2.8760896690
Beta=-1.0757546603,-1.0376781439 DDN=0,1,0.4988896000 DDN=1,1,0.4851967478
CoreKO=0.8822957477 KON=0,0,0,0.8644959976 KON=1,0,1,0.4674744593 KON=0,1,1,0.9229149174
KON=2,1,1,0.4733807789 EISol=-11.6164441184 EHeat=0.0949133088 Alpha=2.3576807890
DipHyp=0.9977217969
GCore=0.0206944368,1.3203262578,1.6023328031
GCore=0.0056550009,1.9286482007,2.8620615714
****

