#P AM1(Input,Print) opt

best

0   1
6        0.913313    -0.639375    -0.019180
6       -0.336540    -1.101744     0.011811
8       -1.154662    -0.011720    -0.002778
6       -0.330480     1.117179     0.095138
6        0.973161     0.651553    -0.023219
1        1.816779     1.374633    -0.019301
1       -0.838923     2.036268    -0.000431
1       -0.830324    -2.062675     0.052530
1        1.809178    -1.368531     0.011149

Method=8 CoreType=1 PeptideFC=0.0114505045 RIJScale=0.5291772086
****
H 
PQN=1 NValence=1 F0ss=0.4721553327 ZetaOverlap=1.1880780000 U=-0.4188110042
Beta=-0.2268825074 CoreKO=1.0589197790 KON=0,0,0,1.0647631153 KON=1,0,1,1.1401254790
KON=0,1,1,0.9732638814 KON=2,1,1,1.0589197790 EISol=-0.4188110042 EHeat=0.0830298228
Alpha=1.5865495725
GCore=0.0084439869,1.4001425905,2.2676713595
GCore=0.0003568368,1.2713995568,3.4015070392
GCore=-0.0011601096,0.5600570362,4.0700853433
****
C 
PQN=2,2 NValence=4 F0ss=0.4494442496 F0sp=0.4215147623 F0pp=0.3768030831 F2pp=0.2046882875
G1sp=0.2481533461
ZetaOverlap=1.7655688186,1.6851160000
U=-1.8824233337,-1.4557965594
Beta=-0.5484703939,-0.2836784428 DDN=0,1,0.8236736000 DDN=1,1,0.7268015000
CoreKO=1.1124284736 KON=0,0,0,1.1806077266 KON=1,0,1,0.8974706024 KON=0,1,1,1.0539723197
KON=2,1,1,0.7783928119 EISol=-4.4398989268 EHeat=0.2723305520 Alpha=1.4014062429
DipHyp=1.6772876335
GCore=0.0007885612,1.4001425905,3.0235618126
GCore=0.0031892455,1.3035296846,3.4959933458
GCore=-0.0013931594,1.4001425905,3.5039447890
GCore=-0.0000875022,1.4001425905,4.5400993048
****
O 
PQN=2,2 NValence=6 F0ss=0.5178706425 F0sp=0.5193533485 F0pp=0.4958708974 F2pp=0.2563824545
G1sp=0.4343770262
ZetaOverlap=2.8500385664,2.5240390000
U=-3.5951865036,-2.8760896690
Beta=-1.0757546603,-1.0757546603 DDN=0,1,0.5276493399 DDN=1,1,0.4852322000
CoreKO=0.8822957477 KON=0,0,0,0.8822957477 KON=1,0,1,0.5019543089 KON=0,1,1,0.8822957477
KON=2,1,1,0.5515584117 EISol=-11.6164441184 EHeat=0.0949133088 Alpha=2.3576807890
DipHyp=1.0737079734
GCore=0.0204988524,1.4001425905,1.6023328031
GCore=0.0059413965,1.9601996266,2.7307884326
****

--Link1--
#P AM1(Input,Print) CIS(Singlets,NStates=10) pop(full) freq

best1

0   1
6        0.913313    -0.639375    -0.019180
6       -0.336540    -1.101744     0.011811
8       -1.154662    -0.011720    -0.002778
6       -0.330480     1.117179     0.095138
6        0.973161     0.651553    -0.023219
1        1.816779     1.374633    -0.019301
1       -0.838923     2.036268    -0.000431
1       -0.830324    -2.062675     0.052530
1        1.809178    -1.368531     0.011149

Method=8 CoreType=1 PeptideFC=0.0114505045 RIJScale=0.5291772086
****
H 
PQN=1 NValence=1 F0ss=0.4721553327 ZetaOverlap=1.1880780000 U=-0.4188110042
Beta=-0.2268825074 CoreKO=1.0589197790 KON=0,0,0,1.0647631153 KON=1,0,1,1.1401254790
KON=0,1,1,0.9732638814 KON=2,1,1,1.0589197790 EISol=-0.4188110042 EHeat=0.0830298228
Alpha=1.5865495725
GCore=0.0084439869,1.4001425905,2.2676713595
GCore=0.0003568368,1.2713995568,3.4015070392
GCore=-0.0011601096,0.5600570362,4.0700853433
****
C 
PQN=2,2 NValence=4 F0ss=0.4494442496 F0sp=0.4215147623 F0pp=0.3768030831 F2pp=0.2046882875
G1sp=0.2481533461
ZetaOverlap=1.7655688186,1.6851160000
U=-1.8824233337,-1.4557965594
Beta=-0.5484703939,-0.2836784428 DDN=0,1,0.8236736000 DDN=1,1,0.7268015000
CoreKO=1.1124284736 KON=0,0,0,1.1806077266 KON=1,0,1,0.8974706024 KON=0,1,1,1.0539723197
KON=2,1,1,0.7783928119 EISol=-4.4398989268 EHeat=0.2723305520 Alpha=1.4014062429
DipHyp=1.6772876335
GCore=0.0007885612,1.4001425905,3.0235618126
GCore=0.0031892455,1.3035296846,3.4959933458
GCore=-0.0013931594,1.4001425905,3.5039447890
GCore=-0.0000875022,1.4001425905,4.5400993048
****
O 
PQN=2,2 NValence=6 F0ss=0.5178706425 F0sp=0.5193533485 F0pp=0.4958708974 F2pp=0.2563824545
G1sp=0.4343770262
ZetaOverlap=2.8500385664,2.5240390000
U=-3.5951865036,-2.8760896690
Beta=-1.0757546603,-1.0757546603 DDN=0,1,0.5276493399 DDN=1,1,0.4852322000
CoreKO=0.8822957477 KON=0,0,0,0.8822957477 KON=1,0,1,0.5019543089 KON=0,1,1,0.8822957477
KON=2,1,1,0.5515584117 EISol=-11.6164441184 EHeat=0.0949133088 Alpha=2.3576807890
DipHyp=1.0737079734
GCore=0.0204988524,1.4001425905,1.6023328031
GCore=0.0059413965,1.9601996266,2.7307884326
****

