#P AM1(Input,Print) CIS(Singlets,NStates=0) pop(full) freq

hi

0   1
6        0.949457    -0.744410     0.003153
6       -0.334578    -1.101294     0.008520
8       -1.191072     0.000496    -0.026305
6       -0.353370     1.086979    -0.010177
6        0.963918     0.699510     0.012057
1        1.801122     1.400416    -0.004479
1       -0.820348     2.054563     0.026729
1       -0.829922    -2.045614     0.001401
1        1.806563    -1.367404     0.012532

Method=8 CoreType=1 PeptideFC=0.0114237966 RIJScale=0.5338163431
****
H 
PQN=1 NValence=1 F0ss=0.4550102668 ZetaOverlap=1.1880780000 U=-0.4188110042
Beta=-0.2304063350 CoreKO=1.0589197790 KON=0,0,0,1.0453056323 KON=1,0,1,0.9554774481
KON=0,1,1,1.1056772020 KON=2,1,1,1.0297260563 EISol=-0.4188110042 EHeat=0.0830298228
Alpha=1.5252601686
GCore=0.0083047407,1.4486575132,2.2676713595
GCore=0.0003735749,1.3924048660,3.3592275353
GCore=-0.0011762542,0.5989822289,3.9684248791
****
C 
PQN=2,2 NValence=4 F0ss=0.4494442496 F0sp=0.4084630067 F0pp=0.3852879947 F2pp=0.1885468243
G1sp=0.2622049517
ZetaOverlap=1.8519880316,1.6627165711
U=-1.8818747743,-1.4557965594
Beta=-0.5952384825,-0.2877898867 DDN=0,1,0.8236736000 DDN=1,1,0.6919203077
CoreKO=1.1496465488 KON=0,0,0,1.0680901224 KON=1,0,1,0.8721606537 KON=0,1,1,1.1124284736
KON=2,1,1,0.7985102714 EISol=-4.4398989268 EHeat=0.2723305520 Alpha=1.4014062429
DipHyp=1.6172069003
GCore=0.0007611229,1.3559939732,3.1618820682
GCore=0.0033548054,1.4001425905,3.6080241147
GCore=-0.0013355407,1.4001425905,3.8739385724
GCore=-0.0000917190,1.4001425905,5.1085237782
****
O 
PQN=2,2 NValence=6 F0ss=0.5521577402 F0sp=0.5152174586 F0pp=0.4717057160 F2pp=0.2358081713
G1sp=0.4300466874
ZetaOverlap=3.0090995420,2.4817199381
U=-3.5951865036,-2.8201405064
Beta=-1.0757546603,-1.0757546603 DDN=0,1,0.4988896000 DDN=1,1,0.4923099924
CoreKO=0.9014653645 KON=0,0,0,0.8857431967 KON=1,0,1,0.5224737544 KON=0,1,1,0.9000873006
KON=2,1,1,0.5515584117 EISol=-11.6164441184 EHeat=0.0949133088 Alpha=2.4755591607
DipHyp=0.9516949315
GCore=0.0170729412,1.4918096136,1.6023328031
GCore=0.0057337965,2.0349308689,2.7113152869
****

