#P AM1(Input,Print) opt

best

0   1
6        0.941613    -0.730843    -0.000009
6       -0.351178    -1.050359    -0.035006
8       -1.150892     0.006085    -0.010205
6       -0.313045     1.070838     0.039676
6        0.915016     0.651417    -0.023796
1        1.819865     1.363637     0.008979
1       -0.809915     2.029310     0.025553
1       -0.843731    -2.041134    -0.002055
1        1.811692    -1.372377     0.006592

Method=8 CoreType=1 PeptideFC=0.0105075790 RIJScale=0.5291772086
****
H 
PQN=1 NValence=1 F0ss=0.4721553327 ZetaOverlap=1.1414562872 U=-0.3537660587
Beta=-0.2429650465 CoreKO=1.1497831874 KON=0,0,0,1.0589197790 KON=1,0,1,1.1076628669
KON=0,1,1,1.0589197790 KON=2,1,1,1.0307888772 EISol=-0.4188110042 EHeat=0.0830298228
Alpha=1.3681006440
GCore=0.0081834224,1.4001425905,2.4879655692
GCore=0.0003534810,1.4001425905,3.4015070392
GCore=-0.0012733648,0.5600570362,3.9643502345
****
C 
PQN=2,2 NValence=4 F0ss=0.4494442496 F0sp=0.4495461581 F0pp=0.3768030831 F2pp=0.1898715146
G1sp=0.2679025821
ZetaOverlap=1.8086650000,1.7027402229
U=-1.8188878486,-1.4557965594
Beta=-0.5775444233,-0.2760012875 DDN=0,1,0.8236736000 DDN=1,1,0.7268015000
CoreKO=1.2043663394 KON=0,0,0,1.1243335505 KON=1,0,1,0.8031649830 KON=0,1,1,1.2149438821
KON=2,1,1,0.7783928119 EISol=-4.4398989268 EHeat=0.2723305520 Alpha=1.4014062429
DipHyp=1.6472524267
GCore=0.0007885612,1.4001425905,3.0235618126
GCore=0.0033380914,1.4001425905,3.4959933458
GCore=-0.0013539537,1.4001425905,3.8739385724
GCore=-0.0000875022,1.2951726323,5.0077742521
****
O 
PQN=2,2 NValence=6 F0ss=0.5666745976 F0sp=0.5321302318 F0pp=0.4645103453 F2pp=0.2358081713
G1sp=0.4343770262
ZetaOverlap=3.3288208116,2.5240390000
U=-3.3827981723,-2.6425383731
Beta=-1.0055188683,-1.0757546603 DDN=0,1,0.5727517126 DDN=1,1,0.4852322000
CoreKO=0.8822957477 KON=0,0,0,0.9488532361 KON=1,0,1,0.5019543089 KON=0,1,1,0.8822957477
KON=2,1,1,0.5515584117 EISol=-11.6164441184 EHeat=0.0949133088 Alpha=2.3576807890
DipHyp=0.9398870785
GCore=0.0195117322,1.4001425905,1.6023328031
GCore=0.0056550009,2.1430234238,2.7307884326
****

--Link1--
#P AM1(Input,Print) CIS(Singlets,NStates=10) pop(full) freq

best1

0   1
6        0.941613    -0.730843    -0.000009
6       -0.351178    -1.050359    -0.035006
8       -1.150892     0.006085    -0.010205
6       -0.313045     1.070838     0.039676
6        0.915016     0.651417    -0.023796
1        1.819865     1.363637     0.008979
1       -0.809915     2.029310     0.025553
1       -0.843731    -2.041134    -0.002055
1        1.811692    -1.372377     0.006592

Method=8 CoreType=1 PeptideFC=0.0105075790 RIJScale=0.5291772086
****
H 
PQN=1 NValence=1 F0ss=0.4721553327 ZetaOverlap=1.1414562872 U=-0.3537660587
Beta=-0.2429650465 CoreKO=1.1497831874 KON=0,0,0,1.0589197790 KON=1,0,1,1.1076628669
KON=0,1,1,1.0589197790 KON=2,1,1,1.0307888772 EISol=-0.4188110042 EHeat=0.0830298228
Alpha=1.3681006440
GCore=0.0081834224,1.4001425905,2.4879655692
GCore=0.0003534810,1.4001425905,3.4015070392
GCore=-0.0012733648,0.5600570362,3.9643502345
****
C 
PQN=2,2 NValence=4 F0ss=0.4494442496 F0sp=0.4495461581 F0pp=0.3768030831 F2pp=0.1898715146
G1sp=0.2679025821
ZetaOverlap=1.8086650000,1.7027402229
U=-1.8188878486,-1.4557965594
Beta=-0.5775444233,-0.2760012875 DDN=0,1,0.8236736000 DDN=1,1,0.7268015000
CoreKO=1.2043663394 KON=0,0,0,1.1243335505 KON=1,0,1,0.8031649830 KON=0,1,1,1.2149438821
KON=2,1,1,0.7783928119 EISol=-4.4398989268 EHeat=0.2723305520 Alpha=1.4014062429
DipHyp=1.6472524267
GCore=0.0007885612,1.4001425905,3.0235618126
GCore=0.0033380914,1.4001425905,3.4959933458
GCore=-0.0013539537,1.4001425905,3.8739385724
GCore=-0.0000875022,1.2951726323,5.0077742521
****
O 
PQN=2,2 NValence=6 F0ss=0.5666745976 F0sp=0.5321302318 F0pp=0.4645103453 F2pp=0.2358081713
G1sp=0.4343770262
ZetaOverlap=3.3288208116,2.5240390000
U=-3.3827981723,-2.6425383731
Beta=-1.0055188683,-1.0757546603 DDN=0,1,0.5727517126 DDN=1,1,0.4852322000
CoreKO=0.8822957477 KON=0,0,0,0.9488532361 KON=1,0,1,0.5019543089 KON=0,1,1,0.8822957477
KON=2,1,1,0.5515584117 EISol=-11.6164441184 EHeat=0.0949133088 Alpha=2.3576807890
DipHyp=0.9398870785
GCore=0.0195117322,1.4001425905,1.6023328031
GCore=0.0056550009,2.1430234238,2.7307884326
****

