#P AM1(Input,Print) CIS(Singlets,NStates=0) pop(full) freq

hi

0   1
6        0.960962    -0.714597     0.006556
6       -0.363085    -1.112476    -0.033053
8       -1.158658     0.011787     0.026397
6       -0.346098     1.092161    -0.011971
6        0.958754     0.735475     0.021594
1        1.817218     1.363332    -0.022379
1       -0.839543     2.053203     0.005603
1       -0.819178    -2.044812    -0.020701
1        1.812084    -1.368414     0.001035

Method=8 CoreType=1 PeptideFC=0.0110993463 RIJScale=0.5252127017
****
H 
PQN=1 NValence=1 F0ss=0.4574173006 ZetaOverlap=1.2403467813 U=-0.4334435106
Beta=-0.2302999186 CoreKO=1.0710893160 KON=0,0,0,1.1078014912 KON=1,0,1,1.1075703682
KON=0,1,1,1.0500466644 KON=2,1,1,1.1073802055 EISol=-0.4188110042 EHeat=0.0830298228
Alpha=1.4739614121
GCore=0.0081152924,1.4332608692,2.2851741408
GCore=0.0003645131,1.4700608540,3.2930058912
GCore=-0.0012454942,0.5774257509,4.1149321567
****
C 
PQN=2,2 NValence=4 F0ss=0.4302430273 F0sp=0.4191676392 F0pp=0.3809374679 F2pp=0.1844056139
G1sp=0.2758238372
ZetaOverlap=1.8091949147,1.6373790898
U=-1.9157681473,-1.4273667060
Beta=-0.5850111491,-0.2892705933 DDN=0,1,0.8014261377 DDN=1,1,0.7084630158
CoreKO=1.1452414570 KON=0,0,0,1.0746703335 KON=1,0,1,0.8031415128 KON=0,1,1,1.1406244364
KON=2,1,1,0.8108837343 EISol=-4.4398989268 EHeat=0.2723305520 Alpha=1.4136430768
DipHyp=1.6879586291
GCore=0.0007807086,1.3833462058,3.0039988164
GCore=0.0032290089,1.3373438841,3.5521226117
GCore=-0.0013857030,1.4128849220,3.7354444202
GCore=-0.0000834959,1.4373821482,4.9926850049
****
O 
PQN=2,2 NValence=6 F0ss=0.5638682172 F0sp=0.5324947065 F0pp=0.4946986720 F2pp=0.2305958283
G1sp=0.4184315226
ZetaOverlap=3.1135927903,2.5868240976
U=-3.6367713904,-2.7535635762
Beta=-1.0657828686,-1.1185245702 DDN=0,1,0.4904587002 DDN=1,1,0.5062418071
CoreKO=0.8558211659 KON=0,0,0,0.8988351338 KON=1,0,1,0.5110759069 KON=0,1,1,0.8413535232
KON=2,1,1,0.5271210554 EISol=-11.6164441184 EHeat=0.0949133088 Alpha=2.4476858251
DipHyp=0.9642435087
GCore=0.0185927807,1.4234572458,1.5236077858
GCore=0.0056091241,2.0392021624,2.7886523874
****

