#P AM1(Input,Print) CIS(Singlets,NStates=0) pop(full) freq

hi

0   1
6        0.960962    -0.714597     0.006556
6       -0.363085    -1.112476    -0.033053
8       -1.158658     0.011787     0.026397
6       -0.346098     1.092161    -0.011971
6        0.958754     0.735475     0.021594
1        1.817218     1.363332    -0.022379
1       -0.839543     2.053203     0.005603
1       -0.819178    -2.044812    -0.020701
1        1.812084    -1.368414     0.001035

Method=8 CoreType=1 PeptideFC=0.0114982257 RIJScale=0.5147382331
****
H 
PQN=1 NValence=1 F0ss=0.4851688819 ZetaOverlap=1.2403467813 U=-0.4334435106
Beta=-0.2302999186 CoreKO=1.0710893160 KON=0,0,0,1.1044331753 KON=1,0,1,1.1075703682
KON=0,1,1,1.1006023878 KON=2,1,1,1.0942130802 EISol=-0.4188110042 EHeat=0.0830298228
Alpha=1.5644424326
GCore=0.0081152924,1.4332608692,2.2085004435
GCore=0.0003645131,1.4700608540,3.4839381930
GCore=-0.0012454942,0.5774257509,4.1149321567
****
C 
PQN=2,2 NValence=4 F0ss=0.4462389059 F0sp=0.4292604134 F0pp=0.3794073953 F2pp=0.1844056139
G1sp=0.2758238372
ZetaOverlap=1.7369971791,1.6373790898
U=-1.8587468818,-1.4273667060
Beta=-0.5594828124,-0.2773374831 DDN=0,1,0.8014261377 DDN=1,1,0.7084630158
CoreKO=1.1452414570 KON=0,0,0,1.0746703335 KON=1,0,1,0.8031415128 KON=0,1,1,1.0822124429
KON=2,1,1,0.8108837343 EISol=-4.4398989268 EHeat=0.2723305520 Alpha=1.4136430768
DipHyp=1.6505034252
GCore=0.0007807086,1.4329888162,3.0039988164
GCore=0.0031516684,1.3903117588,3.4848826355
GCore=-0.0014006103,1.3880859540,3.7354444202
GCore=-0.0000907920,1.4373821482,4.8011645414
****
O 
PQN=2,2 NValence=6 F0ss=0.5391414296 F0sp=0.5413511749 F0pp=0.4946986720 F2pp=0.2305958283
G1sp=0.4545564779
ZetaOverlap=2.9697357868,2.4733842054
U=-3.6367713904,-2.7535635762
Beta=-1.0657828686,-1.0531736315 DDN=0,1,0.5033077755 DDN=1,1,0.5062418071
CoreKO=0.8416604534 KON=0,0,0,0.9174011164 KON=1,0,1,0.5230429164 KON=0,1,1,0.8413535232
KON=2,1,1,0.5271210554 EISol=-11.6164441184 EHeat=0.0949133088 Alpha=2.4476858251
DipHyp=0.9642435087
GCore=0.0203144662,1.4042751404,1.5236077858
GCore=0.0056704600,2.0392021624,2.7886523874
****

