#P AM1(Input,Print) CIS(Singlets,NStates=0) pop(full) freq

hi

0   1
6        0.958474    -0.724177    -0.017570
6       -0.365911    -1.071615    -0.037193
8       -1.152508     0.012634    -0.010768
6       -0.351922     1.087968    -0.005259
6        0.958956     0.709973    -0.001496
1        1.805910     1.371321    -0.033206
1       -0.831764     2.048931     0.004882
1       -0.844803    -2.043208     0.033415
1        1.829397    -1.366733    -0.004156

Method=8 CoreType=1 PeptideFC=0.0119523102 RIJScale=0.5098714719
****
H 
PQN=1 NValence=1 F0ss=0.4948772942 ZetaOverlap=1.2285096862 U=-0.4266681739
Beta=-0.2265095936 CoreKO=1.0242165068 KON=0,0,0,1.0978097851 KON=1,0,1,1.0634389007
KON=0,1,1,1.0942914404 KON=2,1,1,1.1099649035 EISol=-0.4188110042 EHeat=0.0830298228
Alpha=1.4631123431
GCore=0.0083194465,1.4160272752,2.2643670447
GCore=0.0003631755,1.4032347709,3.4606632593
GCore=-0.0013151107,0.5412603655,4.0244394710
****
C 
PQN=2,2 NValence=4 F0ss=0.4683434903 F0sp=0.4139767093 F0pp=0.3625775362 F2pp=0.1991971619
G1sp=0.2739485511
ZetaOverlap=1.8067268661,1.6292368171
U=-1.9584754558,-1.4923546011
Beta=-0.5563953085,-0.2823482671 DDN=0,1,0.8103433124 DDN=1,1,0.6987108648
CoreKO=1.0968516541 KON=0,0,0,1.1344752235 KON=1,0,1,0.8472036271 KON=0,1,1,1.1347524480
KON=2,1,1,0.8065347648 EISol=-4.4398989268 EHeat=0.2723305520 Alpha=1.4292482973
DipHyp=1.6302627465
GCore=0.0007957290,1.4667217421,2.9402359945
GCore=0.0031998553,1.4388679293,3.5459575630
GCore=-0.0013438252,1.4603138246,3.7951604236
GCore=-0.0000831520,1.3847969596,4.8909075439
****
O 
PQN=2,2 NValence=6 F0ss=0.5917230841 F0sp=0.5500546924 F0pp=0.4927740505 F2pp=0.2261236613
G1sp=0.4502702000
ZetaOverlap=3.0496974980,2.4308738468
U=-3.7650444868,-2.8032657144
Beta=-1.1227359544,-1.0702061511 DDN=0,1,0.4969349280 DDN=1,1,0.4721631250
CoreKO=0.8660602611 KON=0,0,0,0.8562375894 KON=1,0,1,0.5049000942 KON=0,1,1,0.9038662131
KON=2,1,1,0.5532760396 EISol=-11.6164441184 EHeat=0.0949133088 Alpha=2.3757708959
DipHyp=0.9886569364
GCore=0.0204785476,1.3716562925,1.5235717670
GCore=0.0056164639,1.8975770947,2.6908558097
****

