#P AM1(Input,Print) CIS(Singlets,NStates=0) pop(full) freq

hi

0   1
6        0.957796    -0.708692     0.021433
6       -0.346406    -1.091078     0.002237
8       -1.161004     0.002613     0.003245
6       -0.375472     1.085309     0.020627
6        0.976142     0.714338    -0.018866
1        1.795818     1.366537    -0.032914
1       -0.846978     2.075925     0.037769
1       -0.843003    -2.051702     0.030673
1        1.809909    -1.368501     0.015537

Method=8 CoreType=1 PeptideFC=0.0111133499 RIJScale=0.5376254683
****
H 
PQN=1 NValence=1 F0ss=0.4799897471 ZetaOverlap=1.2285096862 U=-0.4266681739
Beta=-0.2265095936 CoreKO=1.0095982414 KON=0,0,0,1.0978097851 KON=1,0,1,1.0879145901
KON=0,1,1,1.0176119344 KON=2,1,1,1.1099649035 EISol=-0.4188110042 EHeat=0.0830298228
Alpha=1.5262552660
GCore=0.0083194465,1.4160272752,2.1544775011
GCore=0.0003631755,1.4127523493,3.3247977019
GCore=-0.0013151107,0.5558256671,4.0244394710
****
C 
PQN=2,2 NValence=4 F0ss=0.4683434903 F0sp=0.4139767093 F0pp=0.3625775362 F2pp=0.1930798151
G1sp=0.2739485511
ZetaOverlap=1.8742198949,1.6292368171
U=-1.8180451538,-1.4923546011
Beta=-0.5726895243,-0.2849064947 DDN=0,1,0.8103433124 DDN=1,1,0.6987108648
CoreKO=1.1159370416 KON=0,0,0,1.1344752235 KON=1,0,1,0.8472036271 KON=0,1,1,1.0657604145
KON=2,1,1,0.8065347648 EISol=-4.4398989268 EHeat=0.2723305520 Alpha=1.3912504198
DipHyp=1.6161875078
GCore=0.0007663423,1.3842345256,3.1434327935
GCore=0.0030469193,1.4388679293,3.4452967286
GCore=-0.0014367870,1.4379869118,3.9260991378
GCore=-0.0000911008,1.3578973675,5.2038612303
****
O 
PQN=2,2 NValence=6 F0ss=0.5917230841 F0sp=0.5500546924 F0pp=0.4927740505 F2pp=0.2243847785
G1sp=0.4502702000
ZetaOverlap=3.0496974980,2.4308738468
U=-3.6379684111,-2.8032657144
Beta=-1.0883247174,-1.0382403066 DDN=0,1,0.4969349280 DDN=1,1,0.4808490052
CoreKO=0.8660602611 KON=0,0,0,0.8638464065 KON=1,0,1,0.5256038751 KON=0,1,1,0.9038662131
KON=2,1,1,0.5256527609 EISol=-11.6164441184 EHeat=0.0949133088 Alpha=2.3757708959
DipHyp=0.9886569364
GCore=0.0186126758,1.3537234292,1.5235717670
GCore=0.0056164639,1.8975770947,2.8148348848
****

