#P AM1(Input,Print) CIS(Singlets,NStates=0) pop(full) freq

hi

0   1
6        0.960962    -0.714597     0.006556
6       -0.363085    -1.112476    -0.033053
8       -1.158658     0.011787     0.026397
6       -0.346098     1.092161    -0.011971
6        0.958754     0.735475     0.021594
1        1.817218     1.363332    -0.022379
1       -0.839543     2.053203     0.005603
1       -0.819178    -2.044812    -0.020701
1        1.812084    -1.368414     0.001035

Method=8 CoreType=1 PeptideFC=0.0110993463 RIJScale=0.5252127017
****
H 
PQN=1 NValence=1 F0ss=0.4574173006 ZetaOverlap=1.1800743824 U=-0.4132294256
Beta=-0.2348382438 CoreKO=1.0657331865 KON=0,0,0,1.1078014912 KON=1,0,1,1.0930095844
KON=0,1,1,1.0500466644 KON=2,1,1,1.1073802055 EISol=-0.4188110042 EHeat=0.0830298228
Alpha=1.4739614121
GCore=0.0082710857,1.4352869327,2.2851741408
GCore=0.0003517013,1.3388706127,3.2930058912
GCore=-0.0012613563,0.5537887263,3.8023608598
****
C 
PQN=2,2 NValence=4 F0ss=0.4302430273 F0sp=0.4191676392 F0pp=0.3809374679 F2pp=0.1929748055
G1sp=0.2804056133
ZetaOverlap=1.8091949147,1.6809649359
U=-1.9157681473,-1.4508672650
Beta=-0.5850111491,-0.2892705933 DDN=0,1,0.8253379601 DDN=1,1,0.7493839430
CoreKO=1.1118849006 KON=0,0,0,1.1566420839 KON=1,0,1,0.7927645301 KON=0,1,1,1.1406244364
KON=2,1,1,0.7894622907 EISol=-4.4398989268 EHeat=0.2723305520 Alpha=1.4108227031
DipHyp=1.6879586291
GCore=0.0007955730,1.3833462058,3.1453172926
GCore=0.0032290089,1.3373438841,3.5521226117
GCore=-0.0013857030,1.4128849220,3.9138132346
GCore=-0.0000834959,1.4233512375,4.9926850049
****
O 
PQN=2,2 NValence=6 F0ss=0.5638682172 F0sp=0.5324947065 F0pp=0.5175216029 F2pp=0.2364818883
G1sp=0.4184315226
ZetaOverlap=3.1135927903,2.5868240976
U=-3.5876326482,-2.9278677032
Beta=-1.0756351841,-1.1185245702 DDN=0,1,0.4904587002 DDN=1,1,0.4931823426
CoreKO=0.8558211659 KON=0,0,0,0.8988351338 KON=1,0,1,0.5110759069 KON=0,1,1,0.8637898366
KON=2,1,1,0.5734969256 EISol=-11.6164441184 EHeat=0.0949133088 Alpha=2.3129199152
DipHyp=0.9702545650
GCore=0.0185927807,1.4234572458,1.6314655224
GCore=0.0056091241,1.9285634694,2.6944869565
****

