%chk=best
#P AM1(Input,Print) opt

best

0 1
6        0.871232    -0.663340    -0.027014
6       -0.372153    -1.271490     0.033115
6       -0.356141     1.222812     0.052726
6        0.884951     0.712823     0.085029
1        1.780169     1.327974    -0.016892
1       -0.574594     2.322448     0.198288
1       -0.684360    -2.314832     0.061612
1        1.827502    -1.307272    -0.098803
16       -1.592161     0.048109    -0.069290

Method=8 CoreType=1 PeptideFC=0.0110530340 RIJScale=0.5291772086
****
H 
PQN=1 NValence=1 F0ss=0.4620273394 ZetaOverlap=1.1880780000 U=-0.4839766013
Beta=-0.2268825074 CoreKO=1.0589197790 KON=0,0,0,1.0520352731 KON=1,0,1,1.0589197790
KON=0,1,1,0.9934154525 KON=2,1,1,1.0589197790 EISol=-0.4188110042 EHeat=0.0830298228
Alpha=1.5252601686
GCore=0.0087703364,1.4001425905,2.2676713595
GCore=0.0003534810,1.3583935316,3.4015070392
GCore=-0.0012733648,0.5600570362,3.9684248791
****
C 
PQN=2,2 NValence=4 F0ss=0.4494442496 F0sp=0.4222769358 F0pp=0.3818176991 F2pp=0.1898715146
G1sp=0.2615909723
ZetaOverlap=1.8086650000,1.6665793593
U=-2.0757031050,-1.4459415072
Beta=-0.5775444233,-0.2836784428 DDN=0,1,0.8236736000 DDN=1,1,0.7066213442
CoreKO=1.0803905242 KON=0,0,0,1.1124284736 KON=1,0,1,0.8205706031 KON=0,1,1,1.1124284736
KON=2,1,1,0.8497601748 EISol=-4.4398989268 EHeat=0.2723305520 Alpha=1.4014062429
DipHyp=1.7132443305
GCore=0.0007550116,1.3594359741,3.0235618126
GCore=0.0030833670,1.4203244271,3.4959933458
GCore=-0.0013097276,1.4001425905,3.8739385724
GCore=-0.0000893955,1.4001425905,4.6591966750
****
S 
PQN=3,3 NValence=6 F0ss=0.4052867719 F0sp=0.3183640731 F0pp=0.3028129500 F2pp=0.3456917167
G1sp=0.2791629797
ZetaOverlap=2.3665150000,1.7127111863,0.9721272239
U=-2.0834683120,-1.8703223752
Beta=-0.1440781557,-0.2982406555 DDN=0,1,0.8958649594 DDN=1,1,1.0036329000
CoreKO=1.1543033468 KON=0,0,0,1.1785377074 KON=1,0,1,0.8366289938 KON=0,1,1,1.1404499108
KON=2,1,1,0.7593850968 EISol=-7.0460287497 EHeat=0.1058151363 Alpha=1.3249601549
DipHyp=1.8313627188
GCore=-0.0353616377,1.2863644833,1.4563457902
GCore=-0.0008238398,1.6520779463,2.8408498620
GCore=0.0008348218,3.8513530144,3.3994119947
****

--Link1--
%chk=best
#P AM1(Input,Print) CIS(Singlets,NStates=0) pop(full) freq geom=Checkpoint

best1

0 1
6        0.871232    -0.663340    -0.027014
6       -0.372153    -1.271490     0.033115
6       -0.356141     1.222812     0.052726
6        0.884951     0.712823     0.085029
1        1.780169     1.327974    -0.016892
1       -0.574594     2.322448     0.198288
1       -0.684360    -2.314832     0.061612
1        1.827502    -1.307272    -0.098803
16       -1.592161     0.048109    -0.069290

Method=8 CoreType=1 PeptideFC=0.0110530340 RIJScale=0.5291772086
****
H 
PQN=1 NValence=1 F0ss=0.4620273394 ZetaOverlap=1.1880780000 U=-0.4839766013
Beta=-0.2268825074 CoreKO=1.0589197790 KON=0,0,0,1.0520352731 KON=1,0,1,1.0589197790
KON=0,1,1,0.9934154525 KON=2,1,1,1.0589197790 EISol=-0.4188110042 EHeat=0.0830298228
Alpha=1.5252601686
GCore=0.0087703364,1.4001425905,2.2676713595
GCore=0.0003534810,1.3583935316,3.4015070392
GCore=-0.0012733648,0.5600570362,3.9684248791
****
C 
PQN=2,2 NValence=4 F0ss=0.4494442496 F0sp=0.4222769358 F0pp=0.3818176991 F2pp=0.1898715146
G1sp=0.2615909723
ZetaOverlap=1.8086650000,1.6665793593
U=-2.0757031050,-1.4459415072
Beta=-0.5775444233,-0.2836784428 DDN=0,1,0.8236736000 DDN=1,1,0.7066213442
CoreKO=1.0803905242 KON=0,0,0,1.1124284736 KON=1,0,1,0.8205706031 KON=0,1,1,1.1124284736
KON=2,1,1,0.8497601748 EISol=-4.4398989268 EHeat=0.2723305520 Alpha=1.4014062429
DipHyp=1.7132443305
GCore=0.0007550116,1.3594359741,3.0235618126
GCore=0.0030833670,1.4203244271,3.4959933458
GCore=-0.0013097276,1.4001425905,3.8739385724
GCore=-0.0000893955,1.4001425905,4.6591966750
****
S 
PQN=3,3 NValence=6 F0ss=0.4052867719 F0sp=0.3183640731 F0pp=0.3028129500 F2pp=0.3456917167
G1sp=0.2791629797
ZetaOverlap=2.3665150000,1.7127111863,0.9721272239
U=-2.0834683120,-1.8703223752
Beta=-0.1440781557,-0.2982406555 DDN=0,1,0.8958649594 DDN=1,1,1.0036329000
CoreKO=1.1543033468 KON=0,0,0,1.1785377074 KON=1,0,1,0.8366289938 KON=0,1,1,1.1404499108
KON=2,1,1,0.7593850968 EISol=-7.0460287497 EHeat=0.1058151363 Alpha=1.3249601549
DipHyp=1.8313627188
GCore=-0.0353616377,1.2863644833,1.4563457902
GCore=-0.0008238398,1.6520779463,2.8408498620
GCore=0.0008348218,3.8513530144,3.3994119947
****

