%chk=best
#P AM1(Input,Print) opt

best

0 1
6        0.877357    -0.696525    -0.095228
6       -0.421460    -1.261804    -0.005325
6       -0.354943     1.275266     0.030459
6        0.857680     0.728534    -0.058696
1        1.760856     1.371607     0.051820
1       -0.573142     2.322290     0.203555
1       -0.640547    -2.250218     0.044858
1        1.834174    -1.305522    -0.060848
16       -1.582626     0.077454    -0.045800

Method=8 CoreType=1 PeptideFC=0.0114505045 RIJScale=0.5291772086
****
H 
PQN=1 NValence=1 F0ss=0.4721553327 ZetaOverlap=1.1880780000 U=-0.4442910774
Beta=-0.2268825074 CoreKO=1.0589197790 KON=0,0,0,1.0204364545 KON=1,0,1,1.0589197790
KON=0,1,1,1.0589197790 KON=2,1,1,1.1187900186 EISol=-0.4188110042 EHeat=0.0830298228
Alpha=1.5252601686
GCore=0.0085277107,1.4001425905,2.2676713595
GCore=0.0003534810,1.4001425905,3.4015070392
GCore=-0.0012733648,0.5600570362,3.9684248791
****
C 
PQN=2,2 NValence=4 F0ss=0.4494442496 F0sp=0.4541392960 F0pp=0.3869599554 F2pp=0.1898715146
G1sp=0.2679025821
ZetaOverlap=1.8086650000,1.6851160000
U=-1.9120180828,-1.4557965594
Beta=-0.5833272394,-0.2836784428 DDN=0,1,0.7507598514 DDN=1,1,0.7268015000
CoreKO=1.1124284736 KON=0,0,0,1.1124284736 KON=1,0,1,0.8219701441 KON=0,1,1,1.1124284736
KON=2,1,1,0.7085077381 EISol=-4.4398989268 EHeat=0.2723305520 Alpha=1.4014062429
DipHyp=1.7765447506
GCore=0.0008004091,1.4001425905,3.0235618126
GCore=0.0031892455,1.5034089780,3.4959933458
GCore=-0.0013931594,1.4001425905,3.8739385724
GCore=-0.0000875022,1.4236098352,5.0077742521
****
S 
PQN=3,3 NValence=6 F0ss=0.4331396397 F0sp=0.3183640731 F0pp=0.3136271218 F2pp=0.3456917167
G1sp=0.2791629797
ZetaOverlap=2.3507968292,1.6672630000,0.9900384765
U=-2.0834683120,-1.7903186861
Beta=-0.1440781557,-0.2905136336 DDN=0,1,0.9004265000 DDN=1,1,1.0036329000
CoreKO=1.1543033468 KON=0,0,0,1.1598015916 KON=1,0,1,0.8047915935 KON=0,1,1,1.1543033468
KON=2,1,1,0.7746001785 EISol=-7.0460287497 EHeat=0.1058151363 Alpha=1.3026480172
DipHyp=1.7361727315
GCore=-0.0333656337,1.2870452277,1.3506722212
GCore=-0.0008431297,1.6104168626,2.8408498620
GCore=0.0008818716,3.7964407093,3.5205627774
****

--Link1--
%chk=best
#P AM1(Input,Print) CIS(Singlets,NStates=10) pop(full) freq geom=Checkpoint

best1

0 1

Method=8 CoreType=1 PeptideFC=0.0114505045 RIJScale=0.5291772086
****
H 
PQN=1 NValence=1 F0ss=0.4721553327 ZetaOverlap=1.1880780000 U=-0.4442910774
Beta=-0.2268825074 CoreKO=1.0589197790 KON=0,0,0,1.0204364545 KON=1,0,1,1.0589197790
KON=0,1,1,1.0589197790 KON=2,1,1,1.1187900186 EISol=-0.4188110042 EHeat=0.0830298228
Alpha=1.5252601686
GCore=0.0085277107,1.4001425905,2.2676713595
GCore=0.0003534810,1.4001425905,3.4015070392
GCore=-0.0012733648,0.5600570362,3.9684248791
****
C 
PQN=2,2 NValence=4 F0ss=0.4494442496 F0sp=0.4541392960 F0pp=0.3869599554 F2pp=0.1898715146
G1sp=0.2679025821
ZetaOverlap=1.8086650000,1.6851160000
U=-1.9120180828,-1.4557965594
Beta=-0.5833272394,-0.2836784428 DDN=0,1,0.7507598514 DDN=1,1,0.7268015000
CoreKO=1.1124284736 KON=0,0,0,1.1124284736 KON=1,0,1,0.8219701441 KON=0,1,1,1.1124284736
KON=2,1,1,0.7085077381 EISol=-4.4398989268 EHeat=0.2723305520 Alpha=1.4014062429
DipHyp=1.7765447506
GCore=0.0008004091,1.4001425905,3.0235618126
GCore=0.0031892455,1.5034089780,3.4959933458
GCore=-0.0013931594,1.4001425905,3.8739385724
GCore=-0.0000875022,1.4236098352,5.0077742521
****
S 
PQN=3,3 NValence=6 F0ss=0.4331396397 F0sp=0.3183640731 F0pp=0.3136271218 F2pp=0.3456917167
G1sp=0.2791629797
ZetaOverlap=2.3507968292,1.6672630000,0.9900384765
U=-2.0834683120,-1.7903186861
Beta=-0.1440781557,-0.2905136336 DDN=0,1,0.9004265000 DDN=1,1,1.0036329000
CoreKO=1.1543033468 KON=0,0,0,1.1598015916 KON=1,0,1,0.8047915935 KON=0,1,1,1.1543033468
KON=2,1,1,0.7746001785 EISol=-7.0460287497 EHeat=0.1058151363 Alpha=1.3026480172
DipHyp=1.7361727315
GCore=-0.0333656337,1.2870452277,1.3506722212
GCore=-0.0008431297,1.6104168626,2.8408498620
GCore=0.0008818716,3.7964407093,3.5205627774
****

