#P AM1(Input,Print) opt

best

0 1
6        0.869808    -0.701506     0.056117
6       -0.396279    -1.230906    -0.015526
6       -0.327906     1.347920    -0.006442
6        0.894548     0.716912    -0.023630
1        1.744882     1.303552     0.040418
1       -0.540542     2.324699     0.254702
1       -0.628351    -2.286621     0.121165
1        1.792311    -1.269526    -0.053007
16       -1.616521     0.037214    -0.119411

Method=8 CoreType=1 PeptideFC=0.0119657245 RIJScale=0.5881090766
****
H 
PQN=1 NValence=1 F0ss=0.4996849932 ZetaOverlap=1.2185846149 U=-0.4088880125
Beta=-0.2068422097 CoreKO=1.0643649684 KON=0,0,0,1.0237107472 KON=1,0,1,1.1052197168
KON=0,1,1,1.0743688104 KON=2,1,1,1.1554783525 EISol=-0.4188110042 EHeat=0.0830298228
Alpha=1.5493340673
GCore=0.0085277107,1.4794910116,2.1515238539
GCore=0.0003769288,1.3877843938,3.5811456638
GCore=-0.0013463201,0.5568132691,3.7487552103
****
C 
PQN=2,2 NValence=4 F0ss=0.4780174594 F0sp=0.4253861850 F0pp=0.3899224814 F2pp=0.1791675548
G1sp=0.2828549662
ZetaOverlap=1.8086650000,1.6851160000
U=-1.8861624543,-1.4557965594
Beta=-0.5775444233,-0.2856353388 DDN=0,1,0.7759488616 DDN=1,1,0.7135325066
CoreKO=1.1124284736 KON=0,0,0,1.0602068437 KON=1,0,1,0.6606655467 KON=0,1,1,1.1647035227
KON=2,1,1,0.8116616187 EISol=-4.4398989268 EHeat=0.2723305520 Alpha=1.4014062429
DipHyp=1.5959689693
GCore=0.0007333173,1.5360476860,2.9241613185
GCore=0.0031935650,1.4288890753,3.6129500822
GCore=-0.0014914263,1.4931731926,3.6786333691
GCore=-0.0000806621,1.2467674819,5.9443816034
****
S 
PQN=3,3 NValence=6 F0ss=0.3732165166 F0sp=0.2941468075 F0pp=0.3336562384 F2pp=0.3943779604
G1sp=0.2651707809
ZetaOverlap=2.3746741232,1.3573807383,1.0584769110
U=-2.1612538610,-1.7903186861
Beta=-0.1489128553,-0.2905136336 DDN=0,1,0.9439229619 DDN=1,1,1.0619836885
CoreKO=1.1543033468 KON=0,0,0,1.0651651447 KON=1,0,1,0.7848899098 KON=0,1,1,1.1207989137
KON=2,1,1,0.8042674612 EISol=-7.0460287497 EHeat=0.1058151363 Alpha=1.3301620678
DipHyp=1.6668257409
GCore=-0.0343544745,1.2618425871,1.4242740936
GCore=-0.0008333864,1.6609295365,2.9077463112
GCore=0.0008596462,3.5843376148,3.5762507560
****

--Link1--
#P AM1(Input,Print) CIS(Singlets,NStates=0) pop(full) freq

best1

0 1
6        0.869808    -0.701506     0.056117
6       -0.396279    -1.230906    -0.015526
6       -0.327906     1.347920    -0.006442
6        0.894548     0.716912    -0.023630
1        1.744882     1.303552     0.040418
1       -0.540542     2.324699     0.254702
1       -0.628351    -2.286621     0.121165
1        1.792311    -1.269526    -0.053007
16       -1.616521     0.037214    -0.119411

Method=8 CoreType=1 PeptideFC=0.0119657245 RIJScale=0.5881090766
****
H 
PQN=1 NValence=1 F0ss=0.4996849932 ZetaOverlap=1.2185846149 U=-0.4088880125
Beta=-0.2068422097 CoreKO=1.0643649684 KON=0,0,0,1.0237107472 KON=1,0,1,1.1052197168
KON=0,1,1,1.0743688104 KON=2,1,1,1.1554783525 EISol=-0.4188110042 EHeat=0.0830298228
Alpha=1.5493340673
GCore=0.0085277107,1.4794910116,2.1515238539
GCore=0.0003769288,1.3877843938,3.5811456638
GCore=-0.0013463201,0.5568132691,3.7487552103
****
C 
PQN=2,2 NValence=4 F0ss=0.4780174594 F0sp=0.4253861850 F0pp=0.3899224814 F2pp=0.1791675548
G1sp=0.2828549662
ZetaOverlap=1.8086650000,1.6851160000
U=-1.8861624543,-1.4557965594
Beta=-0.5775444233,-0.2856353388 DDN=0,1,0.7759488616 DDN=1,1,0.7135325066
CoreKO=1.1124284736 KON=0,0,0,1.0602068437 KON=1,0,1,0.6606655467 KON=0,1,1,1.1647035227
KON=2,1,1,0.8116616187 EISol=-4.4398989268 EHeat=0.2723305520 Alpha=1.4014062429
DipHyp=1.5959689693
GCore=0.0007333173,1.5360476860,2.9241613185
GCore=0.0031935650,1.4288890753,3.6129500822
GCore=-0.0014914263,1.4931731926,3.6786333691
GCore=-0.0000806621,1.2467674819,5.9443816034
****
S 
PQN=3,3 NValence=6 F0ss=0.3732165166 F0sp=0.2941468075 F0pp=0.3336562384 F2pp=0.3943779604
G1sp=0.2651707809
ZetaOverlap=2.3746741232,1.3573807383,1.0584769110
U=-2.1612538610,-1.7903186861
Beta=-0.1489128553,-0.2905136336 DDN=0,1,0.9439229619 DDN=1,1,1.0619836885
CoreKO=1.1543033468 KON=0,0,0,1.0651651447 KON=1,0,1,0.7848899098 KON=0,1,1,1.1207989137
KON=2,1,1,0.8042674612 EISol=-7.0460287497 EHeat=0.1058151363 Alpha=1.3301620678
DipHyp=1.6668257409
GCore=-0.0343544745,1.2618425871,1.4242740936
GCore=-0.0008333864,1.6609295365,2.9077463112
GCore=0.0008596462,3.5843376148,3.5762507560
****

