#P B3LYP/3-21G opt

Thiophene

0 1
 C                  0.88920576   -0.68320849   -0.02963061
 C                 -0.40237368   -1.23804620    0.01377117
 C                 -0.36698420    1.28287930    0.05755326
 C                  0.88560476    0.73907074   -0.00414349
 H                  1.77933427    1.32720936   -0.01965214
 H                 -0.56914854    2.32326177    0.20463791
 H                 -0.62024787   -2.27993445    0.12285705
 H                  1.78293098   -1.27043202   -0.06601415
 S                 -1.60845240    0.03870334   -0.13059764

--Link1--
#P B3LYP/3-21G CIS(Singlets,NStates=10) pop(full)

Thiophene

0 1
 C                  0.88920576   -0.68320849   -0.02963061
 C                 -0.40237368   -1.23804620    0.01377117
 C                 -0.36698420    1.28287930    0.05755326
 C                  0.88560476    0.73907074   -0.00414349
 H                  1.77933427    1.32720936   -0.01965214
 H                 -0.56914854    2.32326177    0.20463791
 H                 -0.62024787   -2.27993445    0.12285705
 H                  1.78293098   -1.27043202   -0.06601415
 S                 -1.60845240    0.03870334   -0.13059764

--Link1--
#P B3LYP/3-21G freq

Thiophene

0 1
 C                  0.88920576   -0.68320849   -0.02963061
 C                 -0.40237368   -1.23804620    0.01377117
 C                 -0.36698420    1.28287930    0.05755326
 C                  0.88560476    0.73907074   -0.00414349
 H                  1.77933427    1.32720936   -0.01965214
 H                 -0.56914854    2.32326177    0.20463791
 H                 -0.62024787   -2.27993445    0.12285705
 H                  1.78293098   -1.27043202   -0.06601415
 S                 -1.60845240    0.03870334   -0.13059764


